db/inputs/128531613929255200942568622605131806730.smt2
(set-logic QF_FP)
(declare-const x0 (_ FloatingPoint 11 53))
(declare-const x1 (_ FloatingPoint 11 53))
(declare-const x2 (_ FloatingPoint 11 53))
(declare-const x3 (_ FloatingPoint 11 53))
(declare-const x4 (_ FloatingPoint 11 53))
(assert (fp.lt (fp.div RNE (fp.neg (fp.sub RNE x3 x0)) (fp.sub RNE (fp.mul RNE x0 x2) (fp.sub RNE x0 x3))) (fp.sub RNE (fp.add RNE (fp.sub RNE x0 x3) (fp.mul RNE x4 x1)) (fp.mul RNE (fp.sub RNE x2 x1) (fp.div RNE x3 x4)))))
(assert (fp.geq (fp.mul RNE (fp.add RNE (fp.add RNE x0 x1) (fp.div RNE x1 x3)) (fp.div RNE (fp.mul RNE x4 x3) (fp.neg x3))) (fp.mul RNE (fp.div RNE (fp.add RNE x0 x2) (fp.neg x4)) (fp.add RNE (fp.mul RNE x3 x0) (fp.sub RNE x4 x1)))))
(check-sat)
