db/data/128531613929255200942568622605131806730.z3.out
-------------------
2500.065262096
